p cnf 430 1488
-191 -83 0
-191 81 0
-191 154 0
-191 -189 0
-191 -137 0
191 83 -81 -154 189 137 0
-192 87 0
-192 81 0
-192 106 0
-192 -95 0
-192 30 0
192 -87 -81 -106 95 -30 0
-193 -130 0
-193 -172 0
-193 -139 0
-193 56 0
-193 74 0
193 130 172 139 -56 -74 0
-194 109 0
-194 -169 0
-194 -61 0
-194 117 0
-194 126 0
194 -109 169 61 -117 -126 0
-195 87 0
-195 -124 0
-195 -83 0
-195 -95 0
-195 4 0
195 -87 124 83 95 -4 0
191 192 193 194 195 0
-196 -132 0
-196 -63 0
-196 105 0
-196 -166 0
-196 -169 0
196 132 63 -105 166 169 0
-197 -107 0
-197 -175 0
-197 -7 0
-197 58 0
-197 18 0
197 107 175 7 -58 -18 0
-198 74 0
-198 162 0
-198 134 0
-198 146 0
-198 96 0
198 -74 -162 -134 -146 -96 0
-199 -142 0
-199 -116 0
-199 165 0
-199 -25 0
-199 143 0
199 142 116 -165 25 -143 0
-200 -117 0
-200 -103 0
-200 -133 0
-200 -110 0
-200 -53 0
200 117 103 133 110 53 0
196 197 198 199 200 0
-201 -20 0
-201 -73 0
-201 185 0
-201 -82 0
-201 32 0
201 20 73 -185 82 -32 0
-202 -132 0
-202 -94 0
-202 160 0
-202 -115 0
-202 -181 0
202 132 94 -160 115 181 0
-203 110 0
-203 -139 0
-203 -76 0
-203 -30 0
-203 -81 0
203 -110 139 76 30 81 0
-204 -66 0
-204 -84 0
-204 -54 0
-204 -183 0
-204 -155 0
204 66 84 54 183 155 0
-205 5 0
-205 123 0
-205 -172 0
-205 133 0
-205 162 0
205 -5 -123 172 -133 -162 0
201 202 203 204 205 0
-206 -118 0
-206 -183 0
-206 20 0
-206 -165 0
-206 144 0
206 118 183 -20 165 -144 0
-207 -128 0
-207 151 0
-207 85 0
-207 21 0
-207 84 0
207 128 -151 -85 -21 -84 0
-208 138 0
-208 37 0
-208 106 0
-208 -173 0
-208 117 0
208 -138 -37 -106 173 -117 0
-209 110 0
-209 -102 0
-209 -134 0
-209 -178 0
-209 -189 0
209 -110 102 134 178 189 0
-210 -2 0
-210 68 0
-210 23 0
-210 -34 0
-210 186 0
210 2 -68 -23 34 -186 0
206 207 208 209 210 0
-211 -86 0
-211 79 0
-211 170 0
-211 153 0
-211 37 0
211 86 -79 -170 -153 -37 0
-212 -40 0
-212 144 0
-212 153 0
-212 -75 0
-212 -108 0
212 40 -144 -153 75 108 0
-213 -77 0
-213 -189 0
-213 -27 0
-213 -158 0
-213 -180 0
213 77 189 27 158 180 0
-214 74 0
-214 162 0
-214 -122 0
-214 45 0
-214 147 0
214 -74 -162 122 -45 -147 0
-215 168 0
-215 122 0
-215 -73 0
-215 47 0
-215 78 0
215 -168 -122 73 -47 -78 0
211 212 213 214 215 0
-216 -185 0
-216 57 0
-216 -171 0
-216 79 0
-216 142 0
216 185 -57 171 -79 -142 0
-217 18 0
-217 -132 0
-217 -46 0
-217 159 0
-217 172 0
217 -18 132 46 -159 -172 0
-218 -43 0
-218 93 0
-218 42 0
-218 150 0
-218 97 0
218 43 -93 -42 -150 -97 0
-219 106 0
-219 95 0
-219 -1 0
-219 36 0
-219 94 0
219 -106 -95 1 -36 -94 0
-220 -112 0
-220 74 0
-220 -92 0
-220 59 0
-220 -93 0
220 112 -74 92 -59 93 0
216 217 218 219 220 0
-221 175 0
-221 -57 0
-221 17 0
-221 -11 0
-221 158 0
221 -175 57 -17 11 -158 0
-222 -159 0
-222 127 0
-222 190 0
-222 -141 0
-222 -138 0
222 159 -127 -190 141 138 0
-223 81 0
-223 162 0
-223 -48 0
-223 156 0
-223 -5 0
223 -81 -162 48 -156 5 0
-224 28 0
-224 122 0
-224 70 0
-224 39 0
-224 57 0
224 -28 -122 -70 -39 -57 0
-225 20 0
-225 4 0
-225 -96 0
-225 68 0
-225 168 0
225 -20 -4 96 -68 -168 0
221 222 223 224 225 0
-226 -158 0
-226 21 0
-226 -8 0
-226 -94 0
-226 117 0
226 158 -21 8 94 -117 0
-227 -181 0
-227 13 0
-227 133 0
-227 -114 0
-227 95 0
227 181 -13 -133 114 -95 0
-228 24 0
-228 -19 0
-228 -113 0
-228 152 0
-228 100 0
228 -24 19 113 -152 -100 0
-229 -188 0
-229 86 0
-229 93 0
-229 178 0
-229 -158 0
229 188 -86 -93 -178 158 0
-230 -54 0
-230 -160 0
-230 17 0
-230 -112 0
-230 26 0
230 54 160 -17 112 -26 0
226 227 228 229 230 0
-231 -44 0
-231 -126 0
-231 71 0
-231 -12 0
-231 -95 0
231 44 126 -71 12 95 0
-232 -66 0
-232 122 0
-232 -67 0
-232 -112 0
-232 50 0
232 66 -122 67 112 -50 0
-233 50 0
-233 -14 0
-233 43 0
-233 62 0
-233 -64 0
233 -50 14 -43 -62 64 0
-234 -28 0
-234 92 0
-234 59 0
-234 -68 0
-234 -165 0
234 28 -92 -59 68 165 0
-235 149 0
-235 31 0
-235 103 0
-235 -50 0
-235 -39 0
235 -149 -31 -103 50 39 0
231 232 233 234 235 0
-236 170 0
-236 -139 0
-236 83 0
-236 -187 0
-236 125 0
236 -170 139 -83 187 -125 0
-237 -49 0
-237 57 0
-237 -142 0
-237 56 0
-237 53 0
237 49 -57 142 -56 -53 0
-238 -65 0
-238 -152 0
-238 12 0
-238 170 0
-238 117 0
238 65 152 -12 -170 -117 0
-239 -180 0
-239 -157 0
-239 -172 0
-239 55 0
-239 115 0
239 180 157 172 -55 -115 0
-240 127 0
-240 -186 0
-240 -109 0
-240 -146 0
-240 -33 0
240 -127 186 109 146 33 0
236 237 238 239 240 0
-241 57 0
-241 -64 0
-241 -151 0
-241 -186 0
-241 -171 0
241 -57 64 151 186 171 0
-242 72 0
-242 -109 0
-242 75 0
-242 127 0
-242 -8 0
242 -72 109 -75 -127 8 0
-243 59 0
-243 97 0
-243 -140 0
-243 -64 0
-243 -142 0
243 -59 -97 140 64 142 0
-244 -122 0
-244 175 0
-244 143 0
-244 -97 0
-244 -119 0
244 122 -175 -143 97 119 0
-245 -136 0
-245 129 0
-245 -12 0
-245 -34 0
-245 48 0
245 136 -129 12 34 -48 0
241 242 243 244 245 0
-246 102 0
-246 7 0
-246 -69 0
-246 176 0
-246 -25 0
246 -102 -7 69 -176 25 0
-247 112 0
-247 -170 0
-247 -31 0
-247 174 0
-247 -80 0
247 -112 170 31 -174 80 0
-248 123 0
-248 -54 0
-248 -164 0
-248 -184 0
-248 134 0
248 -123 54 164 184 -134 0
-249 71 0
-249 -14 0
-249 59 0
-249 -93 0
-249 -121 0
249 -71 14 -59 93 121 0
-250 -49 0
-250 -142 0
-250 79 0
-250 85 0
-250 148 0
250 49 142 -79 -85 -148 0
246 247 248 249 250 0
-251 189 0
-251 -129 0
-251 -136 0
-251 -27 0
-251 -188 0
251 -189 129 136 27 188 0
-252 -157 0
-252 22 0
-252 171 0
-252 -93 0
-252 -97 0
252 157 -22 -171 93 97 0
-253 81 0
-253 -121 0
-253 -74 0
-253 -40 0
-253 -71 0
253 -81 121 74 40 71 0
-254 15 0
-254 64 0
-254 -166 0
-254 -168 0
-254 156 0
254 -15 -64 166 168 -156 0
-255 113 0
-255 -187 0
-255 90 0
-255 -137 0
-255 130 0
255 -113 187 -90 137 -130 0
251 252 253 254 255 0
-256 97 0
-256 24 0
-256 -82 0
-256 33 0
-256 -35 0
256 -97 -24 82 -33 35 0
-257 -187 0
-257 1 0
-257 -145 0
-257 171 0
-257 -62 0
257 187 -1 145 -171 62 0
-258 163 0
-258 37 0
-258 -44 0
-258 -172 0
-258 175 0
258 -163 -37 44 172 -175 0
-259 47 0
-259 -108 0
-259 124 0
-259 106 0
-259 123 0
259 -47 108 -124 -106 -123 0
-260 -41 0
-260 -180 0
-260 53 0
-260 -40 0
-260 -161 0
260 41 180 -53 40 161 0
256 257 258 259 260 0
-261 -185 0
-261 33 0
-261 -141 0
-261 16 0
-261 186 0
261 185 -33 141 -16 -186 0
-262 -67 0
-262 119 0
-262 -26 0
-262 147 0
-262 -36 0
262 67 -119 26 -147 36 0
-263 -180 0
-263 -75 0
-263 -74 0
-263 115 0
-263 89 0
263 180 75 74 -115 -89 0
-264 7 0
-264 33 0
-264 78 0
-264 -8 0
-264 -134 0
264 -7 -33 -78 8 134 0
-265 2 0
-265 -102 0
-265 -154 0
-265 -106 0
-265 -47 0
265 -2 102 154 106 47 0
261 262 263 264 265 0
-266 38 0
-266 -123 0
-266 86 0
-266 -59 0
-266 118 0
266 -38 123 -86 59 -118 0
-267 59 0
-267 -127 0
-267 41 0
-267 -166 0
-267 -160 0
267 -59 127 -41 166 160 0
-268 -176 0
-268 -136 0
-268 111 0
-268 -28 0
-268 175 0
268 176 136 -111 28 -175 0
-269 -186 0
-269 -134 0
-269 -32 0
-269 179 0
-269 -158 0
269 186 134 32 -179 158 0
-270 -131 0
-270 -160 0
-270 -162 0
-270 153 0
-270 -25 0
270 131 160 162 -153 25 0
266 267 268 269 270 0
-271 47 0
-271 13 0
-271 -46 0
-271 -6 0
-271 139 0
271 -47 -13 46 6 -139 0
-272 25 0
-272 -12 0
-272 180 0
-272 -177 0
-272 -98 0
272 -25 12 -180 177 98 0
-273 -142 0
-273 34 0
-273 177 0
-273 -37 0
-273 129 0
273 142 -34 -177 37 -129 0
-274 -123 0
-274 -77 0
-274 -134 0
-274 -84 0
-274 143 0
274 123 77 134 84 -143 0
-275 121 0
-275 -165 0
-275 142 0
-275 145 0
-275 22 0
275 -121 165 -142 -145 -22 0
271 272 273 274 275 0
-276 -40 0
-276 -161 0
-276 -36 0
-276 121 0
-276 -171 0
276 40 161 36 -121 171 0
-277 121 0
-277 -17 0
-277 -179 0
-277 21 0
-277 84 0
277 -121 17 179 -21 -84 0
-278 72 0
-278 -187 0
-278 -178 0
-278 -103 0
-278 -133 0
278 -72 187 178 103 133 0
-279 -96 0
-279 100 0
-279 -51 0
-279 26 0
-279 7 0
279 96 -100 51 -26 -7 0
-280 -141 0
-280 160 0
-280 137 0
-280 46 0
-280 -104 0
280 141 -160 -137 -46 104 0
276 277 278 279 280 0
-281 106 0
-281 177 0
-281 122 0
-281 -80 0
-281 -9 0
281 -106 -177 -122 80 9 0
-282 80 0
-282 -1 0
-282 44 0
-282 -148 0
-282 -65 0
282 -80 1 -44 148 65 0
-283 151 0
-283 1 0
-283 -113 0
-283 -21 0
-283 18 0
283 -151 -1 113 21 -18 0
-284 149 0
-284 -139 0
-284 -45 0
-284 -165 0
-284 -144 0
284 -149 139 45 165 144 0
-285 1 0
-285 -129 0
-285 -6 0
-285 76 0
-285 102 0
285 -1 129 6 -76 -102 0
281 282 283 284 285 0
-286 113 0
-286 70 0
-286 176 0
-286 81 0
-286 -149 0
286 -113 -70 -176 -81 149 0
-287 -32 0
-287 94 0
-287 -81 0
-287 113 0
-287 -91 0
287 32 -94 81 -113 91 0
-288 72 0
-288 -107 0
-288 63 0
-288 -88 0
-288 96 0
288 -72 107 -63 88 -96 0
-289 -106 0
-289 36 0
-289 132 0
-289 79 0
-289 120 0
289 106 -36 -132 -79 -120 0
-290 -95 0
-290 -164 0
-290 113 0
-290 20 0
-290 -83 0
290 95 164 -113 -20 83 0
286 287 288 289 290 0
-291 35 0
-291 153 0
-291 156 0
-291 -49 0
-291 38 0
291 -35 -153 -156 49 -38 0
-292 161 0
-292 -94 0
-292 17 0
-292 -62 0
-292 -145 0
292 -161 94 -17 62 145 0
-293 11 0
-293 182 0
-293 143 0
-293 -76 0
-293 156 0
293 -11 -182 -143 76 -156 0
-294 181 0
-294 -55 0
-294 36 0
-294 180 0
-294 -141 0
294 -181 55 -36 -180 141 0
-295 -82 0
-295 -71 0
-295 -63 0
-295 160 0
-295 7 0
295 82 71 63 -160 -7 0
291 292 293 294 295 0
-296 -184 0
-296 100 0
-296 -76 0
-296 48 0
-296 84 0
296 184 -100 76 -48 -84 0
-297 -40 0
-297 151 0
-297 14 0
-297 -190 0
-297 -39 0
297 40 -151 -14 190 39 0
-298 -31 0
-298 121 0
-298 -92 0
-298 -56 0
-298 -29 0
298 31 -121 92 56 29 0
-299 171 0
-299 -132 0
-299 77 0
-299 -149 0
-299 183 0
299 -171 132 -77 149 -183 0
-300 -174 0
-300 92 0
-300 173 0
-300 16 0
-300 50 0
300 174 -92 -173 -16 -50 0
296 297 298 299 300 0
-301 80 0
-301 1 0
-301 153 0
-301 -100 0
-301 95 0
301 -80 -1 -153 100 -95 0
-302 -58 0
-302 -9 0
-302 -124 0
-302 36 0
-302 66 0
302 58 9 124 -36 -66 0
-303 -75 0
-303 180 0
-303 51 0
-303 66 0
-303 9 0
303 75 -180 -51 -66 -9 0
-304 -142 0
-304 -5 0
-304 -85 0
-304 22 0
-304 -140 0
304 142 5 85 -22 140 0
-305 85 0
-305 -136 0
-305 -96 0
-305 -55 0
-305 1 0
305 -85 136 96 55 -1 0
301 302 303 304 305 0
-306 98 0
-306 103 0
-306 -42 0
-306 63 0
-306 78 0
306 -98 -103 42 -63 -78 0
-307 162 0
-307 103 0
-307 -2 0
-307 107 0
-307 -14 0
307 -162 -103 2 -107 14 0
-308 44 0
-308 94 0
-308 103 0
-308 -164 0
-308 9 0
308 -44 -94 -103 164 -9 0
-309 3 0
-309 -10 0
-309 148 0
-309 -47 0
-309 -86 0
309 -3 10 -148 47 86 0
-310 136 0
-310 11 0
-310 -120 0
-310 164 0
-310 102 0
310 -136 -11 120 -164 -102 0
306 307 308 309 310 0
-311 -106 0
-311 -80 0
-311 -33 0
-311 -22 0
-311 49 0
311 106 80 33 22 -49 0
-312 -110 0
-312 52 0
-312 87 0
-312 -44 0
-312 -99 0
312 110 -52 -87 44 99 0
-313 -37 0
-313 52 0
-313 111 0
-313 5 0
-313 -101 0
313 37 -52 -111 -5 101 0
-314 170 0
-314 168 0
-314 -147 0
-314 103 0
-314 -164 0
314 -170 -168 147 -103 164 0
-315 49 0
-315 5 0
-315 -100 0
-315 81 0
-315 157 0
315 -49 -5 100 -81 -157 0
311 312 313 314 315 0
-316 -74 0
-316 117 0
-316 53 0
-316 76 0
-316 118 0
316 74 -117 -53 -76 -118 0
-317 163 0
-317 -109 0
-317 -57 0
-317 123 0
-317 70 0
317 -163 109 57 -123 -70 0
-318 -54 0
-318 23 0
-318 -134 0
-318 4 0
-318 -144 0
318 54 -23 134 -4 144 0
-319 30 0
-319 -148 0
-319 1 0
-319 89 0
-319 -158 0
319 -30 148 -1 -89 158 0
-320 -1 0
-320 -135 0
-320 161 0
-320 -106 0
-320 76 0
320 1 135 -161 106 -76 0
316 317 318 319 320 0
-321 157 0
-321 -179 0
-321 -118 0
-321 27 0
-321 -149 0
321 -157 179 118 -27 149 0
-322 -27 0
-322 -136 0
-322 -171 0
-322 147 0
-322 43 0
322 27 136 171 -147 -43 0
-323 -119 0
-323 -163 0
-323 133 0
-323 -98 0
-323 -70 0
323 119 163 -133 98 70 0
-324 139 0
-324 41 0
-324 88 0
-324 81 0
-324 145 0
324 -139 -41 -88 -81 -145 0
-325 -119 0
-325 -5 0
-325 140 0
-325 -57 0
-325 129 0
325 119 5 -140 57 -129 0
321 322 323 324 325 0
-326 -60 0
-326 22 0
-326 -39 0
-326 -84 0
-326 -124 0
326 60 -22 39 84 124 0
-327 -128 0
-327 8 0
-327 -37 0
-327 -35 0
-327 149 0
327 128 -8 37 35 -149 0
-328 41 0
-328 -131 0
-328 -112 0
-328 46 0
-328 -14 0
328 -41 131 112 -46 14 0
-329 125 0
-329 -85 0
-329 105 0
-329 -98 0
-329 -26 0
329 -125 85 -105 98 26 0
-330 -79 0
-330 -103 0
-330 28 0
-330 98 0
-330 140 0
330 79 103 -28 -98 -140 0
326 327 328 329 330 0
-331 -36 0
-331 -177 0
-331 -133 0
-331 -131 0
-331 -22 0
331 36 177 133 131 22 0
-332 10 0
-332 -167 0
-332 82 0
-332 145 0
-332 93 0
332 -10 167 -82 -145 -93 0
-333 -173 0
-333 111 0
-333 165 0
-333 -104 0
-333 -121 0
333 173 -111 -165 104 121 0
-334 45 0
-334 -161 0
-334 7 0
-334 -20 0
-334 -153 0
334 -45 161 -7 20 153 0
-335 -53 0
-335 81 0
-335 108 0
-335 9 0
-335 14 0
335 53 -81 -108 -9 -14 0
331 332 333 334 335 0
-336 -130 0
-336 15 0
-336 -190 0
-336 61 0
-336 -144 0
336 130 -15 190 -61 144 0
-337 37 0
-337 -46 0
-337 -117 0
-337 -15 0
-337 -12 0
337 -37 46 117 15 12 0
-338 77 0
-338 142 0
-338 -148 0
-338 38 0
-338 159 0
338 -77 -142 148 -38 -159 0
-339 -48 0
-339 -119 0
-339 84 0
-339 -98 0
-339 -94 0
339 48 119 -84 98 94 0
-340 -27 0
-340 -104 0
-340 -76 0
-340 41 0
-340 18 0
340 27 104 76 -41 -18 0
336 337 338 339 340 0
-341 171 0
-341 21 0
-341 71 0
-341 -111 0
-341 152 0
341 -171 -21 -71 111 -152 0
-342 49 0
-342 -56 0
-342 -172 0
-342 -26 0
-342 -187 0
342 -49 56 172 26 187 0
-343 -133 0
-343 129 0
-343 184 0
-343 59 0
-343 128 0
343 133 -129 -184 -59 -128 0
-344 -185 0
-344 -95 0
-344 -155 0
-344 -89 0
-344 -86 0
344 185 95 155 89 86 0
-345 -42 0
-345 140 0
-345 -65 0
-345 39 0
-345 71 0
345 42 -140 65 -39 -71 0
341 342 343 344 345 0
-346 -76 0
-346 -177 0
-346 98 0
-346 -99 0
-346 -78 0
346 76 177 -98 99 78 0
-347 14 0
-347 -57 0
-347 7 0
-347 132 0
-347 -5 0
347 -14 57 -7 -132 5 0
-348 7 0
-348 -63 0
-348 146 0
-348 -182 0
-348 92 0
348 -7 63 -146 182 -92 0
-349 58 0
-349 126 0
-349 4 0
-349 107 0
-349 -93 0
349 -58 -126 -4 -107 93 0
-350 148 0
-350 86 0
-350 -59 0
-350 133 0
-350 -14 0
350 -148 -86 59 -133 14 0
346 347 348 349 350 0
-351 -100 0
-351 168 0
-351 -167 0
-351 40 0
-351 -111 0
351 100 -168 167 -40 111 0
-352 -108 0
-352 -121 0
-352 -107 0
-352 -98 0
-352 13 0
352 108 121 107 98 -13 0
-353 -92 0
-353 -37 0
-353 123 0
-353 -145 0
-353 52 0
353 92 37 -123 145 -52 0
-354 145 0
-354 167 0
-354 97 0
-354 -80 0
-354 -65 0
354 -145 -167 -97 80 65 0
-355 1 0
-355 -95 0
-355 98 0
-355 -50 0
-355 135 0
355 -1 95 -98 50 -135 0
351 352 353 354 355 0
-356 -183 0
-356 24 0
-356 63 0
-356 -95 0
-356 -73 0
356 183 -24 -63 95 73 0
-357 188 0
-357 61 0
-357 -110 0
-357 -114 0
-357 -7 0
357 -188 -61 110 114 7 0
-358 -45 0
-358 -123 0
-358 -86 0
-358 64 0
-358 26 0
358 45 123 86 -64 -26 0
-359 110 0
-359 16 0
-359 -182 0
-359 -147 0
-359 -187 0
359 -110 -16 182 147 187 0
-360 -77 0
-360 -51 0
-360 173 0
-360 -39 0
-360 60 0
360 77 51 -173 39 -60 0
356 357 358 359 360 0
-361 141 0
-361 -9 0
-361 -163 0
-361 -64 0
-361 -50 0
361 -141 9 163 64 50 0
-362 29 0
-362 113 0
-362 -112 0
-362 -49 0
-362 43 0
362 -29 -113 112 49 -43 0
-363 69 0
-363 95 0
-363 71 0
-363 7 0
-363 -41 0
363 -69 -95 -71 -7 41 0
-364 188 0
-364 124 0
-364 -11 0
-364 -143 0
-364 35 0
364 -188 -124 11 143 -35 0
-365 68 0
-365 -95 0
-365 96 0
-365 -83 0
-365 36 0
365 -68 95 -96 83 -36 0
361 362 363 364 365 0
-366 -169 0
-366 145 0
-366 -109 0
-366 157 0
-366 -125 0
366 169 -145 109 -157 125 0
-367 -77 0
-367 72 0
-367 -145 0
-367 -119 0
-367 -82 0
367 77 -72 145 119 82 0
-368 -10 0
-368 -131 0
-368 -173 0
-368 159 0
-368 86 0
368 10 131 173 -159 -86 0
-369 -87 0
-369 53 0
-369 -106 0
-369 148 0
-369 26 0
369 87 -53 106 -148 -26 0
-370 97 0
-370 -53 0
-370 -145 0
-370 -19 0
-370 87 0
370 -97 53 145 19 -87 0
366 367 368 369 370 0
-371 -158 0
-371 -94 0
-371 22 0
-371 -164 0
-371 -97 0
371 158 94 -22 164 97 0
-372 72 0
-372 128 0
-372 -105 0
-372 -48 0
-372 -130 0
372 -72 -128 105 48 130 0
-373 186 0
-373 131 0
-373 -163 0
-373 -189 0
-373 134 0
373 -186 -131 163 189 -134 0
-374 65 0
-374 -39 0
-374 -62 0
-374 -98 0
-374 184 0
374 -65 39 62 98 -184 0
-375 154 0
-375 183 0
-375 5 0
-375 -186 0
-375 -146 0
375 -154 -183 -5 186 146 0
371 372 373 374 375 0
-376 144 0
-376 172 0
-376 166 0
-376 65 0
-376 -10 0
376 -144 -172 -166 -65 10 0
-377 -91 0
-377 -152 0
-377 -116 0
-377 -72 0
-377 -28 0
377 91 152 116 72 28 0
-378 82 0
-378 -18 0
-378 -151 0
-378 -149 0
-378 57 0
378 -82 18 151 149 -57 0
-379 58 0
-379 -21 0
-379 81 0
-379 -84 0
-379 141 0
379 -58 21 -81 84 -141 0
-380 11 0
-380 103 0
-380 24 0
-380 -97 0
-380 1 0
380 -11 -103 -24 97 -1 0
376 377 378 379 380 0
-381 6 0
-381 42 0
-381 68 0
-381 -187 0
-381 154 0
381 -6 -42 -68 187 -154 0
-382 -146 0
-382 -106 0
-382 84 0
-382 -185 0
-382 109 0
382 146 106 -84 185 -109 0
-383 -162 0
-383 113 0
-383 -42 0
-383 -171 0
-383 -20 0
383 162 -113 42 171 20 0
-384 25 0
-384 181 0
-384 142 0
-384 -188 0
-384 -21 0
384 -25 -181 -142 188 21 0
-385 -16 0
-385 40 0
-385 -184 0
-385 -164 0
-385 -85 0
385 16 -40 184 164 85 0
381 382 383 384 385 0
-386 -164 0
-386 26 0
-386 138 0
-386 31 0
-386 69 0
386 164 -26 -138 -31 -69 0
-387 188 0
-387 102 0
-387 177 0
-387 -25 0
-387 -70 0
387 -188 -102 -177 25 70 0
-388 -21 0
-388 148 0
-388 104 0
-388 74 0
-388 -77 0
388 21 -148 -104 -74 77 0
-389 10 0
-389 182 0
-389 13 0
-389 -133 0
-389 115 0
389 -10 -182 -13 133 -115 0
-390 144 0
-390 -127 0
-390 -34 0
-390 -161 0
-390 33 0
390 -144 127 34 161 -33 0
386 387 388 389 390 0
-391 -189 0
-391 -13 0
-391 157 0
-391 109 0
-391 146 0
391 189 13 -157 -109 -146 0
-392 104 0
-392 -36 0
-392 81 0
-392 -64 0
-392 138 0
392 -104 36 -81 64 -138 0
-393 -24 0
-393 173 0
-393 67 0
-393 161 0
-393 82 0
393 24 -173 -67 -161 -82 0
-394 123 0
-394 -38 0
-394 -64 0
-394 -77 0
-394 81 0
394 -123 38 64 77 -81 0
-395 -155 0
-395 -186 0
-395 -127 0
-395 134 0
-395 -43 0
395 155 186 127 -134 43 0
391 392 393 394 395 0
-396 158 0
-396 15 0
-396 130 0
-396 174 0
-396 -88 0
396 -158 -15 -130 -174 88 0
-397 -101 0
-397 40 0
-397 175 0
-397 13 0
-397 150 0
397 101 -40 -175 -13 -150 0
-398 105 0
-398 -79 0
-398 -91 0
-398 -117 0
-398 -172 0
398 -105 79 91 117 172 0
-399 81 0
-399 -52 0
-399 85 0
-399 51 0
-399 -61 0
399 -81 52 -85 -51 61 0
-400 111 0
-400 -38 0
-400 135 0
-400 85 0
-400 24 0
400 -111 38 -135 -85 -24 0
396 397 398 399 400 0
-401 132 0
-401 -12 0
-401 35 0
-401 -111 0
-401 9 0
401 -132 12 -35 111 -9 0
-402 36 0
-402 86 0
-402 19 0
-402 -130 0
-402 -28 0
402 -36 -86 -19 130 28 0
-403 -29 0
-403 92 0
-403 -148 0
-403 -111 0
-403 9 0
403 29 -92 148 111 -9 0
-404 156 0
-404 109 0
-404 145 0
-404 -157 0
-404 82 0
404 -156 -109 -145 157 -82 0
-405 -77 0
-405 57 0
-405 -145 0
-405 105 0
-405 -32 0
405 77 -57 145 -105 32 0
401 402 403 404 405 0
-406 -73 0
-406 9 0
-406 89 0
-406 45 0
-406 -60 0
406 73 -9 -89 -45 60 0
-407 67 0
-407 -89 0
-407 82 0
-407 161 0
-407 -145 0
407 -67 89 -82 -161 145 0
-408 141 0
-408 -52 0
-408 -111 0
-408 53 0
-408 179 0
408 -141 52 111 -53 -179 0
-409 -106 0
-409 -188 0
-409 58 0
-409 125 0
-409 6 0
409 106 188 -58 -125 -6 0
-410 28 0
-410 116 0
-410 11 0
-410 -104 0
-410 125 0
410 -28 -116 -11 104 -125 0
406 407 408 409 410 0
-411 88 0
-411 82 0
-411 -75 0
-411 13 0
-411 167 0
411 -88 -82 75 -13 -167 0
-412 -90 0
-412 -132 0
-412 186 0
-412 94 0
-412 19 0
412 90 132 -186 -94 -19 0
-413 111 0
-413 34 0
-413 124 0
-413 38 0
-413 -168 0
413 -111 -34 -124 -38 168 0
-414 31 0
-414 -51 0
-414 167 0
-414 96 0
-414 189 0
414 -31 51 -167 -96 -189 0
-415 -114 0
-415 144 0
-415 60 0
-415 143 0
-415 159 0
415 114 -144 -60 -143 -159 0
411 412 413 414 415 0
-416 84 0
-416 -171 0
-416 -18 0
-416 -109 0
-416 111 0
416 -84 171 18 109 -111 0
-417 -93 0
-417 55 0
-417 -52 0
-417 -9 0
-417 34 0
417 93 -55 52 9 -34 0
-418 75 0
-418 62 0
-418 -90 0
-418 -36 0
-418 -115 0
418 -75 -62 90 36 115 0
-419 47 0
-419 -37 0
-419 -176 0
-419 42 0
-419 -190 0
419 -47 37 176 -42 190 0
-420 -9 0
-420 50 0
-420 102 0
-420 -189 0
-420 -142 0
420 9 -50 -102 189 142 0
416 417 418 419 420 0
-421 -42 0
-421 18 0
-421 39 0
-421 169 0
-421 11 0
421 42 -18 -39 -169 -11 0
-422 51 0
-422 -8 0
-422 -27 0
-422 -167 0
-422 -34 0
422 -51 8 27 167 34 0
-423 59 0
-423 -8 0
-423 155 0
-423 106 0
-423 85 0
423 -59 8 -155 -106 -85 0
-424 143 0
-424 108 0
-424 27 0
-424 114 0
-424 -94 0
424 -143 -108 -27 -114 94 0
-425 -114 0
-425 151 0
-425 -117 0
-425 -97 0
-425 -163 0
425 114 -151 117 97 163 0
421 422 423 424 425 0
-426 -183 0
-426 34 0
-426 97 0
-426 107 0
-426 123 0
426 183 -34 -97 -107 -123 0
-427 -64 0
-427 -23 0
-427 117 0
-427 -134 0
-427 120 0
427 64 23 -117 134 -120 0
-428 183 0
-428 121 0
-428 151 0
-428 152 0
-428 -181 0
428 -183 -121 -151 -152 181 0
-429 37 0
-429 39 0
-429 36 0
-429 -139 0
-429 -117 0
429 -37 -39 -36 139 117 0
-430 157 0
-430 -4 0
-430 144 0
-430 -88 0
-430 -164 0
430 -157 4 -144 88 164 0
426 427 428 429 430 0
